%nproc=28
%mem=16GB
%chk=MgComplex_TIP4PEW.chk
#p B3LYP/6-31G* empiricaldispersion=gd3bj opt  scrf(PCM,solvent=water)  

FFEnergy

0 1
Mg    -0.806425    -1.373218    -0.010104
O    -0.760397    -1.365648    -2.022940
O     1.105258    -1.365661    -0.323754
O    -2.789777    -1.339555     0.092605
O    -1.023411    -1.343591     1.914885
O    -0.830931    -3.381630    -0.035571
H    -0.790376    -3.701630    -0.922564
H    -0.053094    -3.701630     0.461244
C    -2.452487    -1.387752     1.558865
H    -3.350230    -1.430799     2.256332
C     0.740047    -1.361630    -1.700270
H     1.361724    -1.361630    -2.763092
O    -0.805884     1.126781    -0.007540
H    -1.724855     1.446781    -0.069113
H    -0.414062     1.446781     0.791211


