%nproc=28
%mem=16GB
%chk=MOF841_Node_Water_2_Re_HtoHw_TIP4PEW.chk
#p M06L/gen empiricaldispersion=gd3 

FFEnergy

0 1
Zr     1.364000     1.433000     1.676000
Zr     1.177000     1.322000    -1.899000
Zr    -1.008000    -1.245000     1.908000
Zr    -1.141000    -1.390000    -1.662000
Zr     1.986000    -1.619000    -0.023000
Zr    -1.792000     1.654000     0.034000
O    -1.723000     3.432000     1.387000
O     0.137000     3.172000     2.633000
C    -0.950000     3.716000     2.333000
O     3.674000    -1.318000    -1.423000
O     3.268000     0.641000    -2.459000
O    -1.767000     3.374000    -1.448000
O     0.139000     3.224000    -2.648000
O     3.781000    -1.218000     1.261000
O     3.432000     0.750000     2.303000
C     4.107000    -0.264000     2.002000
O     2.609000     3.045000     1.190000
H     3.482000     2.991000     1.590000
O     1.947000    -3.352000     1.351000
O    -0.042000    -3.244000     2.405000
C     1.036000    -3.791000     2.100000
O    -3.560000     1.365000    -1.304000
O    -3.079000    -0.441000    -2.565000
O     1.826000    -3.429000    -1.337000
O    -0.186000    -3.342000    -2.350000
O    -3.469000     1.375000     1.515000
O    -3.006000    -0.487000     2.702000
C    -3.697000     0.517000     2.395000
O    -0.630000    -0.926000     3.934000
H    -1.413000    -0.835000     4.485000
O    -2.570000    -2.909000    -1.276000
H    -2.348000    -3.735000    -1.716000
O     0.366000     2.496000    -0.050000
H     0.449000     3.453000     0.001000
O     1.844000     0.446000    -0.082000
O    -0.079000    -1.785000     0.061000
O    -2.303000    -0.593000     0.087000
H    -3.252000    -0.804000     0.086000
O     1.228000    -0.827000     2.059000
H     1.653000    -1.212000     2.832000
O    -0.655000     0.755000     1.497000
O     1.060000    -0.946000    -2.088000
O    -0.754000     0.697000    -1.473000
H     2.296000     3.919000    -1.736000
O     2.644000     3.068000    -1.450000
H     2.744000     3.125000    -0.446000
H    -2.465000    -3.150000     0.533000
O    -2.558000    -2.933000     1.495000
H    -3.467000    -2.598000     1.546000
O     1.060000     1.096000     3.941000
H     0.403000     0.337000     4.060000
H     0.617000     1.890000     4.267000
H     5.113000    -0.324000     2.452000
H     1.227000    -4.782000     2.548000
H    -4.626000     0.656000     2.976000
H    -1.268000     4.557000     2.974000
C     3.967000    -0.352000    -2.173000
C    -0.970000     3.735000    -2.336000
C    -3.766000     0.553000    -2.234000
C     0.916000    -3.873000    -2.071000
O     0.868000     0.945000    -3.928000
H     0.646000     1.718000    -4.455000
H     1.478000    -1.310000    -2.874000
O    -0.903000    -1.008000    -3.930000
H    -1.757000    -0.676000    -4.234000
H    -0.244000    -0.252000    -4.052000
H     4.966000    -0.399000    -2.640000
H     1.109000    -4.856000    -2.537000
H    -4.676000     0.737000    -2.836000
H    -1.267000     4.623000    -2.924000
O    -4.721000    -1.943000    -0.038000
H    -4.185000    -2.408000    -0.721000
H    -5.587000    -1.777000    -0.415000

H C O  0
def2SVP
****
Zr  0
SDD
****

Zr  0
SDD

